(set-option :produce-models true)
(set-option :produce-unsat-cores true)
(set-option :produce-interpolants true)
(set-option :interpolant-check-mode true)
(set-option :proof-transformation LU)
(set-logic ALL)
(set-info :source |SMT script generated on 2024-03-30T23:52:33+01:00 by Ultimate (https://ultimate.informatik.uni-freiburg.de/)|)
(set-info :smt-lib-version 2.5)
(set-info :category "industrial")
(set-info :ultimate-id partial_mod_count_limited_gen.c_AllErrorsAtOnce_Iteration1)
(declare-fun |c_old(~N~0)| () Int)
(declare-fun |c_old(~N~0)_primed| () Int)
(declare-fun c_~N~0 () Int)
(declare-fun c_~N~0_primed () Int)
(declare-fun |c_old(#valid)| () (Array Int Int))
(declare-fun |c_old(#valid)_primed| () (Array Int Int))
(declare-fun |c_#valid| () (Array Int Int))
(declare-fun |c_#valid_primed| () (Array Int Int))
(declare-fun |c_old(#length)| () (Array Int Int))
(declare-fun |c_old(#length)_primed| () (Array Int Int))
(declare-fun |c_#length| () (Array Int Int))
(declare-fun |c_#length_primed| () (Array Int Int))
(declare-fun |c_old(#memory_int#0)| () (Array Int (Array Int Int)))
(declare-fun |c_old(#memory_int#0)_primed| () (Array Int (Array Int Int)))
(declare-fun |c_#memory_int#0| () (Array Int (Array Int Int)))
(declare-fun |c_#memory_int#0_primed| () (Array Int (Array Int Int)))
(declare-fun |c_old(#memory_int#1)| () (Array Int (Array Int Int)))
(declare-fun |c_old(#memory_int#1)_primed| () (Array Int (Array Int Int)))
(declare-fun |c_#memory_int#1| () (Array Int (Array Int Int)))
(declare-fun |c_#memory_int#1_primed| () (Array Int (Array Int Int)))
(declare-fun |c_old(#StackHeapBarrier)| () Int)
(declare-fun |c_old(#StackHeapBarrier)_primed| () Int)
(declare-fun |c_#StackHeapBarrier| () Int)
(declare-fun |c_#StackHeapBarrier_primed| () Int)
(declare-fun |c_#Ultimate.allocInit_~size| () Int)
(declare-fun |c_#Ultimate.allocInit_~size_primed| () Int)
(declare-fun |c_#Ultimate.allocInit_ptrBase| () Int)
(declare-fun |c_#Ultimate.allocInit_ptrBase_primed| () Int)
(declare-fun |c___VERIFIER_nondet_uint_#res| () Int)
(declare-fun |c___VERIFIER_nondet_uint_#res_primed| () Int)
(declare-fun |c_read~int#1_#ptr.base| () Int)
(declare-fun |c_read~int#1_#ptr.base_primed| () Int)
(declare-fun |c_read~int#1_#ptr.offset| () Int)
(declare-fun |c_read~int#1_#ptr.offset_primed| () Int)
(declare-fun |c_read~int#1_#sizeOfReadType| () Int)
(declare-fun |c_read~int#1_#sizeOfReadType_primed| () Int)
(declare-fun |c_read~int#1_#value| () Int)
(declare-fun |c_read~int#1_#value_primed| () Int)
(declare-fun |c_read~int#0_#ptr.base| () Int)
(declare-fun |c_read~int#0_#ptr.base_primed| () Int)
(declare-fun |c_read~int#0_#ptr.offset| () Int)
(declare-fun |c_read~int#0_#ptr.offset_primed| () Int)
(declare-fun |c_read~int#0_#sizeOfReadType| () Int)
(declare-fun |c_read~int#0_#sizeOfReadType_primed| () Int)
(declare-fun |c_read~int#0_#value| () Int)
(declare-fun |c_read~int#0_#value_primed| () Int)
(declare-fun |c_assume_abort_if_not_#in~cond| () Int)
(declare-fun |c_assume_abort_if_not_#in~cond_primed| () Int)
(declare-fun c_assume_abort_if_not_~cond () Int)
(declare-fun c_assume_abort_if_not_~cond_primed () Int)
(declare-fun |c_main_#res| () Int)
(declare-fun |c_main_#res_primed| () Int)
(declare-fun |c_main_#t~nondet4| () Int)
(declare-fun |c_main_#t~nondet4_primed| () Int)
(declare-fun |c_main_#t~nondet5| () Int)
(declare-fun |c_main_#t~nondet5_primed| () Int)
(declare-fun |c_main_#t~mem6| () Int)
(declare-fun |c_main_#t~mem6_primed| () Int)
(declare-fun |c_main_#t~post7| () Int)
(declare-fun |c_main_#t~post7_primed| () Int)
(declare-fun |c_main_#t~post8| () Int)
(declare-fun |c_main_#t~post8_primed| () Int)
(declare-fun |c_main_#t~mem9| () Int)
(declare-fun |c_main_#t~mem9_primed| () Int)
(declare-fun |c_main_#t~post10| () Int)
(declare-fun |c_main_#t~post10_primed| () Int)
(declare-fun |c_main_#t~post11| () Int)
(declare-fun |c_main_#t~post11_primed| () Int)
(declare-fun c_main_~i~0 () Int)
(declare-fun c_main_~i~0_primed () Int)
(declare-fun c_main_~j~0 () Int)
(declare-fun c_main_~j~0_primed () Int)
(declare-fun c_main_~k~0 () Int)
(declare-fun c_main_~k~0_primed () Int)
(declare-fun |c_main_~#a~0.base| () Int)
(declare-fun |c_main_~#a~0.base_primed| () Int)
(declare-fun |c_main_~#a~0.offset| () Int)
(declare-fun |c_main_~#a~0.offset_primed| () Int)
(declare-fun c_main_~lim~0 () Int)
(declare-fun c_main_~lim~0_primed () Int)
(declare-fun c_main_~R~0 () Int)
(declare-fun c_main_~R~0_primed () Int)
(declare-fun |c_#Ultimate.allocOnStack_~size| () Int)
(declare-fun |c_#Ultimate.allocOnStack_~size_primed| () Int)
(declare-fun |c_#Ultimate.allocOnStack_#res.base| () Int)
(declare-fun |c_#Ultimate.allocOnStack_#res.base_primed| () Int)
(declare-fun |c_#Ultimate.allocOnStack_#res.offset| () Int)
(declare-fun |c_#Ultimate.allocOnStack_#res.offset_primed| () Int)
(declare-fun |c_write~int#0_#value| () Int)
(declare-fun |c_write~int#0_#value_primed| () Int)
(declare-fun |c_write~int#0_#ptr.base| () Int)
(declare-fun |c_write~int#0_#ptr.base_primed| () Int)
(declare-fun |c_write~int#0_#ptr.offset| () Int)
(declare-fun |c_write~int#0_#ptr.offset_primed| () Int)
(declare-fun |c_write~int#0_#sizeOfWrittenType| () Int)
(declare-fun |c_write~int#0_#sizeOfWrittenType_primed| () Int)
(declare-fun |c_write~int#1_#value| () Int)
(declare-fun |c_write~int#1_#value_primed| () Int)
(declare-fun |c_write~int#1_#ptr.base| () Int)
(declare-fun |c_write~int#1_#ptr.base_primed| () Int)
(declare-fun |c_write~int#1_#ptr.offset| () Int)
(declare-fun |c_write~int#1_#ptr.offset_primed| () Int)
(declare-fun |c_write~int#1_#sizeOfWrittenType| () Int)
(declare-fun |c_write~int#1_#sizeOfWrittenType_primed| () Int)
(declare-fun |c___VERIFIER_nondet_int_#res| () Int)
(declare-fun |c___VERIFIER_nondet_int_#res_primed| () Int)
(declare-fun |c_ULTIMATE.start_#t~ret12| () Int)
(declare-fun |c_ULTIMATE.start_#t~ret12_primed| () Int)
(declare-fun |c___VERIFIER_assert_#in~cond| () Int)
(declare-fun |c___VERIFIER_assert_#in~cond_primed| () Int)
(declare-fun c___VERIFIER_assert_~cond () Int)
(declare-fun c___VERIFIER_assert_~cond_primed () Int)
(declare-fun |c_write~init~int#1_#value| () Int)
(declare-fun |c_write~init~int#1_#value_primed| () Int)
(declare-fun |c_write~init~int#1_#ptr.base| () Int)
(declare-fun |c_write~init~int#1_#ptr.base_primed| () Int)
(declare-fun |c_write~init~int#1_#ptr.offset| () Int)
(declare-fun |c_write~init~int#1_#ptr.offset_primed| () Int)
(declare-fun |c_write~init~int#1_#sizeOfWrittenType| () Int)
(declare-fun |c_write~init~int#1_#sizeOfWrittenType_primed| () Int)
(declare-fun |c___assert_fail_#in~0.base| () Int)
(declare-fun |c___assert_fail_#in~0.base_primed| () Int)
(declare-fun |c___assert_fail_#in~0.offset| () Int)
(declare-fun |c___assert_fail_#in~0.offset_primed| () Int)
(declare-fun |c___assert_fail_#in~1.base| () Int)
(declare-fun |c___assert_fail_#in~1.base_primed| () Int)
(declare-fun |c___assert_fail_#in~1.offset| () Int)
(declare-fun |c___assert_fail_#in~1.offset_primed| () Int)
(declare-fun |c___assert_fail_#in~2| () Int)
(declare-fun |c___assert_fail_#in~2_primed| () Int)
(declare-fun |c___assert_fail_#in~3.base| () Int)
(declare-fun |c___assert_fail_#in~3.base_primed| () Int)
(declare-fun |c___assert_fail_#in~3.offset| () Int)
(declare-fun |c___assert_fail_#in~3.offset_primed| () Int)
(declare-fun |c_write~init~int#0_#value| () Int)
(declare-fun |c_write~init~int#0_#value_primed| () Int)
(declare-fun |c_write~init~int#0_#ptr.base| () Int)
(declare-fun |c_write~init~int#0_#ptr.base_primed| () Int)
(declare-fun |c_write~init~int#0_#ptr.offset| () Int)
(declare-fun |c_write~init~int#0_#ptr.offset_primed| () Int)
(declare-fun |c_write~init~int#0_#sizeOfWrittenType| () Int)
(declare-fun |c_write~init~int#0_#sizeOfWrittenType_primed| () Int)
(declare-fun c_ULTIMATE.dealloc_~addr.base () Int)
(declare-fun c_ULTIMATE.dealloc_~addr.base_primed () Int)
(declare-fun c_ULTIMATE.dealloc_~addr.offset () Int)
(declare-fun c_ULTIMATE.dealloc_~addr.offset_primed () Int)
(declare-fun |c_aux_v_main_#t~post7_2| () Int)
(declare-fun |c_aux_v_main_#t~post10_2| () Int)
(declare-fun |c_aux_v_ULTIMATE.start_#t~ret12_3| () Int)
(echo "starting trace check")
(push 1)
(declare-fun |#memory_int#0_-1| () (Array Int (Array Int Int)))
(declare-fun |#valid_-1| () (Array Int Int))
(declare-fun |#length_-1| () (Array Int Int))
(declare-fun ~N~0_-1 () Int)
(declare-fun |#memory_int#1_-1| () (Array Int (Array Int Int)))
(declare-fun |old(#memory_int#0)_-1| () (Array Int (Array Int Int)))
(declare-fun |old(#valid)_-1| () (Array Int Int))
(declare-fun |old(#length)_-1| () (Array Int Int))
(declare-fun |old(~N~0)_-1| () Int)
(declare-fun |old(#memory_int#1)_-1| () (Array Int (Array Int Int)))
(declare-fun |old(~N~0)_0| () Int)
(declare-fun ~N~0_0 () Int)
(declare-fun |#StackHeapBarrier_-1| () Int)
(declare-fun ~N~0_1 () Int)
(declare-fun |old(#valid)_3| () (Array Int Int))
(declare-fun |old(#length)_3| () (Array Int Int))
(declare-fun |old(#memory_int#1)_3| () (Array Int (Array Int Int)))
(declare-fun |#valid_3| () (Array Int Int))
(declare-fun |#length_3| () (Array Int Int))
(declare-fun |#memory_int#1_3| () (Array Int (Array Int Int)))
(declare-fun |main_#t~nondet5_4| () Int)
(declare-fun |main_#t~nondet4_4| () Int)
(declare-fun main_~k~0_4 () Int)
(declare-fun main_~j~0_4 () Int)
(declare-fun |#valid_4| () (Array Int Int))
(declare-fun main_~lim~0_4 () Int)
(declare-fun main_~i~0_4 () Int)
(declare-fun |#length_4| () (Array Int Int))
(declare-fun main_~R~0_4 () Int)
(declare-fun |main_~#a~0.base_4| () Int)
(declare-fun |main_~#a~0.offset_4| () Int)
(declare-fun v_ArrVal_1_fresh_1 () Int)
(declare-fun v_ArrVal_2_fresh_1 () Int)
(declare-fun |assume_abort_if_not_#in~cond_5| () Int)
(declare-fun main_~R~0_5 () Int)
(declare-fun assume_abort_if_not_~cond_6 () Int)
(declare-fun main_~lim~0_10 () Int)
(declare-fun |assume_abort_if_not_#in~cond_10| () Int)
(declare-fun main_~R~0_10 () Int)
(declare-fun assume_abort_if_not_~cond_11 () Int)
(declare-fun main_~i~0_15 () Int)
(declare-fun main_~i~0_16 () Int)
(declare-fun main_~i~0_17 () Int)
(declare-fun |main_#t~mem9_18| () Int)
(declare-fun main_~j~0_19 () Int)
(declare-fun |main_#t~mem9_19| () Int)
(declare-fun |v_main_#t~post10_3_fresh_1| () Int)
(declare-fun |__VERIFIER_assert_#in~cond_20| () Int)
(declare-fun main_~j~0_20 () Int)
(declare-fun main_~R~0_20 () Int)
(declare-fun __VERIFIER_assert_~cond_21 () Int)
(declare-fun __VERIFIER_assert_~cond_22 () Int)
(assert (! true :named ssa_precond))
(assert (! (not false) :named ssa_postcond))
(assert (! (= |old(~N~0)_0| ~N~0_0) :named ssa_0_GlobVarAssigCall))
(assert (! true :named ssa_0_LocVarAssigCall))
(assert (! (= ~N~0_-1 |old(~N~0)_0|) :named ssa_0_OldVarAssigCall))
(assert (! (and (= (select |#valid_-1| 1) 1) (= (select |#valid_-1| 2) 1) (= 1000 ~N~0_1) (< 0 |#StackHeapBarrier_-1|) (= (select |#valid_-1| 3) 1) (= (select |#valid_-1| 0) 0) (= (select |#length_-1| 1) 2) (= (select |#length_-1| 2) 32) (= (select |#length_-1| 3) 12) (= (select (select |#memory_int#0_-1| 1) 1) 0) (= (select (select |#memory_int#0_-1| 1) 0) 48)) :named ssa_1))
(assert (! true :named ssa_2_return))
(assert (! (and (= |old(#valid)_3| |#valid_3|) (= |#length_3| |old(#length)_3|) (= |old(#memory_int#1)_3| |#memory_int#1_3|)) :named ssa_3_GlobVarAssigCall))
(assert (! true :named ssa_3_LocVarAssigCall))
(assert (! (and (= |old(#length)_3| |#length_-1|) (= |#valid_-1| |old(#valid)_3|) (= |old(#memory_int#1)_3| |#memory_int#1_-1|)) :named ssa_3_OldVarAssigCall))
(assert (! (and (< |#StackHeapBarrier_-1| |main_~#a~0.base_4|) (= (* (mod ~N~0_1 1073741824) 4) v_ArrVal_2_fresh_1) (= main_~j~0_4 0) (= (store |#valid_3| |main_~#a~0.base_4| v_ArrVal_1_fresh_1) |#valid_4|) (= v_ArrVal_1_fresh_1 1) (not (= |main_~#a~0.base_4| 0)) (= |main_~#a~0.offset_4| 0) (= (select |#valid_3| |main_~#a~0.base_4|) 0) (= main_~k~0_4 0) (<= 0 (+ main_~lim~0_4 2147483648)) (= (store |#length_3| |main_~#a~0.base_4| v_ArrVal_2_fresh_1) |#length_4|) (<= main_~lim~0_4 2147483647)) :named ssa_4))
(assert (! true :named ssa_5_GlobVarAssigCall))
(assert (! (= |assume_abort_if_not_#in~cond_5| (ite (and (< 1 (mod main_~R~0_4 4294967296)) (< (mod main_~R~0_4 4294967296) 6)) 1 0)) :named ssa_5_LocVarAssigCall))
(assert (! true :named ssa_5_OldVarAssigCall))
(assert (! (= |assume_abort_if_not_#in~cond_5| assume_abort_if_not_~cond_6) :named ssa_6))
(assert (! false :named ssa_7))
(assert (! true :named ssa_8))
(assert (! true :named ssa_9_return))
(assert (! true :named ssa_10_GlobVarAssigCall))
(assert (! (= |assume_abort_if_not_#in~cond_10| (ite (and (< (mod main_~lim~0_4 4294967296) (mod (div (mod ~N~0_1 4294967296) (mod main_~R~0_4 4294967296)) 4294967296)) (< 0 main_~lim~0_4)) 1 0)) :named ssa_10_LocVarAssigCall))
(assert (! true :named ssa_10_OldVarAssigCall))
(assert (! (= |assume_abort_if_not_#in~cond_10| assume_abort_if_not_~cond_11) :named ssa_11))
(assert (! false :named ssa_12))
(assert (! true :named ssa_13))
(assert (! true :named ssa_14_return))
(assert (! (= main_~i~0_15 0) :named ssa_15))
(assert (! (<= ~N~0_1 main_~i~0_15) :named ssa_16))
(assert (! (= main_~i~0_17 0) :named ssa_17))
(assert (! (and (= |main_#t~mem9_18| (select (select |#memory_int#1_3| |main_~#a~0.base_4|) (+ (* main_~i~0_17 4) |main_~#a~0.offset_4|))) (< main_~i~0_17 ~N~0_1)) :named ssa_18))
(assert (! (and (= main_~j~0_4 |v_main_#t~post10_3_fresh_1|) (= |main_#t~mem9_18| 0) (= main_~j~0_19 (+ |v_main_#t~post10_3_fresh_1| 1))) :named ssa_19))
(assert (! true :named ssa_20_GlobVarAssigCall))
(assert (! (= (ite (<= (mod main_~j~0_19 4294967296) (mod (div (mod (+ (* 4294967295 ~N~0_1) (* main_~R~0_4 ~N~0_1)) 4294967296) (mod (* main_~R~0_4 main_~R~0_4) 4294967296)) 4294967296)) 1 0) |__VERIFIER_assert_#in~cond_20|) :named ssa_20_LocVarAssigCall))
(assert (! true :named ssa_20_OldVarAssigCall))
(assert (! (= __VERIFIER_assert_~cond_21 |__VERIFIER_assert_#in~cond_20|) :named ssa_21))
(assert (! (= __VERIFIER_assert_~cond_21 0) :named ssa_22))
(assert (! true :named ssa_23))
(check-sat)
(get-interpolants (and ssa_0_LocVarAssigCall ssa_precond ssa_0_GlobVarAssigCall ssa_0_OldVarAssigCall ssa_2_return ssa_1) (and ssa_3_OldVarAssigCall ssa_3_LocVarAssigCall ssa_3_GlobVarAssigCall) ssa_4 (and ssa_5_LocVarAssigCall ssa_5_GlobVarAssigCall ssa_7 ssa_6 ssa_8 ssa_5_OldVarAssigCall ssa_9_return) (and ssa_13 ssa_10_GlobVarAssigCall ssa_10_OldVarAssigCall ssa_12 ssa_11 ssa_10_LocVarAssigCall ssa_14_return) ssa_15 ssa_16 ssa_17 ssa_18 ssa_19 (and ssa_20_GlobVarAssigCall ssa_20_OldVarAssigCall ssa_20_LocVarAssigCall) ssa_21 ssa_22 (and ssa_postcond ssa_23))
(exit)
